D4 LOG: Running /Users/bryant/repos/d4/d4 ./mc2022_track1_091.cnf -dDNNF -out=./mc2022_track1_091.cnnf -drat=./mc2022_track1_091.drat
D4 LOG: Time limit 1000 seconds
c [33mBenchmark Information[0m
c Number of variables: 249
c Number of clauses: 1162
c Number of literals: 3486
c Preproc options: 
c
c Preproc time: 0.000267
c Integer mode 
c
c [1m[32mOption list [0m
c Caching: 1
c Reduce cache procedure level: 20
c Strategy for Reducing the cache: 0
c Cache representation: CL
c Part of the formula that is cached: NT
c Variable heuristic: VSADS
c Phase heuristic: TRUE
c Partitioning heuristic: CB + graph reduction + equivalence simplication
c
c ----------------------------------------------------------------------------------------------------------------------------------------------------------
c   #compile |       time |    #posHit |    #negHit |     #split |    Mem(MB) |     #nodes |     #edges | #equivCall | #Dec. Node | #paritioner |  limit dyn | 
c ----------------------------------------------------------------------------------------------------------------------------------------------------------
c top 5: 105 
c top 5: 105 222 
c top 5: 105 222 177 
c top 5: 105 222 177 -62 
c unitLits 1048577 4194308 Bytes
c freeVariables 1048577
c ----------------------------------------------------------------------------------------------------------------------------------------------------------
c
c [1m[31mStatistics [0m
c [33mCompilation Information[0m
c Number of compiled node: 39
c Number of split formula: 3
c Number of decision node: 19
c Number of node built on domain constraints: 0
c Number of decomposable AND nodes: 1
c Number of backbone calls: 0
c Number of partitioner calls: 1
c Average number of assigned literal to obtain decomposable AND nodes: 240.00/249
c Minimum number of assigned variable where a decomposable AND appeared: 240
c 
c [33mGraph Information[0m
c Number of nodes: 288
c Number of edges: 309
c 
c [1m[34mCache Information[0m
c Memory used: 575 MB
c
c Number of positive hit: 0
c Number of negative hit: 19
c Number of reduceCall: 0
c
c Final time: 30.617037
c 
s 0.000000
D4 LOG: Elapsed time = 30.837 seconds
D4 OUTCOME: normal
mc2022_track1_091. D4 NNF LOG: size ./mc2022_track1_091.cnnf 65 lines 12362 bytes
mc2022_track1_091. D4 DRAT LOG: size ./mc2022_track1_091.drat 6414473 lines 384524251 bytes
DTRIM LOG: Running /Users/bryant/repos/drat-trim/drat-trim ./mc2022_track1_091.cnf ./mc2022_track1_091.drat -f -U
DTRIM LOG: Time limit 1000 seconds

c parsing input formula with 249 variables and 1162 clauses

c finished parsing

c start forward verification

c 1162 of 1162 clauses in core                            

c 2853481 of 3207660 lemmas in core using 80957432 resolution steps

c 0 RAT lemmas in core; 0 redundant literals in core lemmas

c optimized proofs are not supported for forward checking

c VERIFIED derivation: all lemmas preserve satisfiability

c WARNING: no empty clause detected, this is not a refutation

s DERIVATION

c verification time: 29.162 seconds
DTRIM LOG: Elapsed time = 29.171 seconds
DTRIM OUTCOME: normal
CHECK LOG: Running /Users/bryant/repos/d4/certificator ./mc2022_track1_091.cnf ./mc2022_track1_091.cnnf ./mc2022_track1_091.drat
CHECK LOG: Time limit 1000 seconds
c CNF information
c Number of variables: 249
c Number of clauses: 1162
c
c DRAT information
c Number of drat clauses: 3207659
c
c DDnnf parsing: 0.000
c DDnnf checked: 0.003
c
c Global time: 1.305
CHECK LOG: Elapsed time = 1.374 seconds
CHECK OUTCOME: normal
OVERALL LOG: Elapsed time = 62.619 seconds
OVERALL OUTCOME: normal
